# Objective value = 60
WA1n 0
WA1p 0
WA2n 1
WA2p 0
WB1n 0
WB1p 0
WB2n 0
WB2p 1
WC1n 1
WC1p 0
WD1n 0
WD1p 1
WE1n 2
WE1p 0
WF1n 0
WF1p 2
WG1n 4
WG1p 0
WH1n 7
WH1p 0
WH2n 1
WH2p 0
WI1n 0
WI1p 7
WI2n 0
WI2p 1
WJ1n 19
WJ1p 0
WT1n 7
WT1p 0
WT2n 1
WT2p 0
5 7
a 0
b 0
c 0
d 1
e 0
f 1
g 0
h 1
i 0
j 0
k 0
l 1
m 1
n 0
o 0
p 0
